NAME : portcgen-25-90
COMMENT : portcgen N=25, seed=90
TYPE : TSP
DIMENSION : 25
EDGE_WEIGHT_TYPE : EUC_2D
NODE_COORD_SECTION
1 65 93
2 52 92
3 46 77
4 64 93
5 64 90
6 52 101
7 72 53
8 65 99
9 67 94
10 68 90
11 78 42
12 78 78
13 46 112
14 87 56
15 78 58
16 91 57
17 51 84
18 79 73
19 53 95
20 66 76
21 61 93
22 74 69
23 72 94
24 70 82
25 55 83
